p cnf 139 500
-3 -1 0
-3 -2 0
1 2 3 0
1 -2 -4 0
-1 2 -4 0
1 2 4 0
-1 -2 4 0
-3 4 -5 0
3 -4 -5 0
-3 -4 5 0
3 4 5 0
-2 -3 -6 0
2 3 -6 0
-2 3 6 0
2 -3 6 0
7 -5 0
7 -6 0
5 6 -7 0
-12 10 0
-12 11 0
-10 -11 12 0
13 -9 0
13 -12 0
9 12 -13 0
16 -14 0
16 -15 0
14 15 -16 0
18 -16 0
18 17 0
16 -17 -18 0
19 18 0
19 -15 0
-18 15 -19 0
-13 19 -20 0
13 -19 -20 0
-13 -19 20 0
13 19 20 0
22 -9 0
22 -21 0
9 21 -22 0
23 20 0
23 -22 0
-20 22 -23 0
24 -8 0
24 -23 0
8 23 -24 0
-7 24 -25 0
7 -24 -25 0
-7 -24 25 0
7 24 25 0
27 26 0
27 -10 0
-26 10 -27 0
1 27 -28 0
-1 -27 -28 0
1 -27 28 0
-1 27 28 0
4 28 -29 0
-4 -28 -29 0
4 -28 29 0
-4 28 29 0
-30 -29 0
-30 -23 0
29 23 30 0
4 -29 -31 0
-4 29 -31 0
4 29 31 0
-4 -29 31 0
31 -18 -32 0
-31 18 -32 0
31 18 32 0
-31 -18 32 0
33 -17 0
33 -15 0
17 15 -33 0
34 32 0
34 -33 0
-32 33 -34 0
-35 30 0
-35 -34 0
-30 34 35 0
-36 2 0
-36 16 0
-2 -16 36 0
-37 36 0
-37 21 0
-36 -21 37 0
37 -15 -38 0
-37 15 -38 0
37 15 38 0
-37 -15 38 0
-39 -38 0
-39 -15 0
38 15 39 0
-39 -40 -41 0
39 40 -41 0
-39 40 41 0
39 -40 41 0
-41 29 -42 0
41 -29 -42 0
-41 -29 42 0
41 29 42 0
43 35 0
43 -42 0
-35 42 -43 0
44 20 0
44 -18 0
-20 18 -44 0
-45 43 0
-45 -44 0
-43 44 45 0
-37 31 -46 0
37 -31 -46 0
-37 -31 46 0
37 31 46 0
-47 -3 0
-47 46 0
3 -46 47 0
48 -37 0
48 36 0
37 -36 -48 0
-49 47 0
-49 -48 0
-47 48 49 0
-29 -11 -50 0
29 11 -50 0
-29 11 50 0
29 -11 50 0
-52 -29 0
-52 38 0
29 -38 52 0
-53 51 0
-53 -52 0
-51 52 53 0
-54 21 0
-54 22 0
-21 -22 54 0
53 -54 -55 0
-53 54 -55 0
53 54 55 0
-53 -54 55 0
-56 50 0
-56 -55 0
-50 55 56 0
49 56 -57 0
-49 -56 -57 0
49 -56 57 0
-49 56 57 0
-58 -45 0
-58 -57 0
45 57 58 0
59 10 0
59 36 0
-10 -36 -59 0
59 40 -60 0
-59 -40 -60 0
59 -40 60 0
-59 40 60 0
61 60 0
61 -31 0
-60 31 -61 0
62 5 0
62 -23 0
-5 23 -62 0
-11 -62 -63 0
11 62 -63 0
-11 62 63 0
11 -62 63 0
-64 61 0
-64 -63 0
-61 63 64 0
-64 -16 -65 0
64 16 -65 0
-64 16 65 0
64 -16 65 0
58 -65 -66 0
-58 65 -66 0
58 65 66 0
-58 -65 66 0
3 -20 -67 0
-3 20 -67 0
3 20 67 0
-3 -20 67 0
-67 -59 -68 0
67 59 -68 0
-67 59 68 0
67 -59 68 0
68 30 -69 0
-68 -30 -69 0
68 -30 69 0
-68 30 69 0
-70 60 0
-70 18 0
-60 -18 70 0
-71 -69 0
-71 70 0
69 -70 71 0
-72 -5 0
-72 -36 0
5 36 72 0
-21 -18 -73 0
21 18 -73 0
-21 18 73 0
21 -18 73 0
74 72 0
74 -73 0
-72 73 -74 0
75 37 0
75 74 0
-37 -74 -75 0
-76 -52 0
-76 -27 0
52 27 76 0
77 75 0
77 -76 0
-75 76 -77 0
-78 40 0
-78 21 0
-40 -21 78 0
79 78 0
79 -1 0
-78 1 -79 0
80 -77 0
80 -79 0
77 79 -80 0
-81 -71 0
-81 -80 0
71 80 81 0
82 66 0
82 -81 0
-66 81 -82 0
-17 19 -83 0
17 -19 -83 0
-17 -19 83 0
17 19 83 0
-83 -10 -84 0
83 10 -84 0
-83 10 84 0
83 -10 84 0
85 84 0
85 2 0
-84 -2 -85 0
-39 -72 -86 0
39 72 -86 0
-39 72 86 0
39 -72 86 0
-87 -86 0
-87 -68 0
86 68 87 0
-88 12 0
-88 6 0
-12 -6 88 0
89 19 0
89 88 0
-19 -88 -89 0
-90 -87 0
-90 -89 0
87 89 90 0
85 -90 -91 0
-85 90 -91 0
85 90 91 0
-85 -90 91 0
-82 91 -92 0
82 -91 -92 0
-82 -91 92 0
82 91 92 0
-93 -78 0
-93 22 0
78 -22 93 0
-94 -22 0
-94 11 0
22 -11 94 0
95 93 0
95 94 0
-93 -94 -95 0
-9 27 -96 0
9 -27 -96 0
-9 -27 96 0
9 27 96 0
97 -14 0
97 12 0
14 -12 -97 0
-98 -96 0
-98 97 0
96 -97 98 0
99 -95 0
99 98 0
95 -98 -99 0
100 92 0
100 99 0
-92 -99 -100 0
-101 25 0
-101 -100 0
-25 100 101 0
103 102 0
103 50 0
-102 -50 -103 0
104 -103 0
104 73 0
103 -73 -104 0
-5 22 -105 0
5 -22 -105 0
-5 -22 105 0
5 22 105 0
-106 104 0
-106 105 0
-104 -105 106 0
101 106 -107 0
-101 -106 -107 0
101 -106 107 0
-101 106 107 0
-108 1 0
-108 23 0
-1 -23 108 0
1 -46 -109 0
-1 46 -109 0
1 46 109 0
-1 -46 109 0
-108 -109 -110 0
108 109 -110 0
-108 109 110 0
108 -109 110 0
-111 -59 0
-111 29 0
59 -29 111 0
-112 -72 0
-112 3 0
72 -3 112 0
-113 11 0
-113 -112 0
-11 112 113 0
-114 111 0
-114 -113 0
-111 113 114 0
115 10 0
115 -102 0
-10 102 -115 0
116 72 0
116 -72 0
117 -115 0
117 -116 0
115 116 -117 0
-102 29 -118 0
102 -29 -118 0
-102 -29 118 0
102 29 118 0
-117 118 -119 0
117 -118 -119 0
-117 -118 119 0
117 118 119 0
-120 -114 0
-120 119 0
114 -119 120 0
-121 -110 0
-121 -120 0
110 120 121 0
-122 -10 0
-122 4 0
10 -4 122 0
123 -30 0
123 84 0
30 -84 -123 0
-124 -2 0
-124 -15 0
2 15 124 0
123 124 -125 0
-123 -124 -125 0
123 -124 125 0
-123 124 125 0
-126 -50 0
-126 -62 0
50 62 126 0
-125 -126 -127 0
125 126 -127 0
-125 126 127 0
125 -126 127 0
-128 -122 0
-128 127 0
122 -127 128 0
129 121 0
129 128 0
-121 -128 -129 0
-130 38 0
-130 -103 0
-38 103 130 0
-129 -130 -131 0
129 130 -131 0
-129 130 131 0
129 -130 131 0
-132 107 0
-132 -131 0
-107 131 132 0
-133 -20 0
-133 -9 0
20 9 133 0
134 -133 0
134 -15 0
133 15 -134 0
-78 -4 -135 0
78 4 -135 0
-78 4 135 0
78 -4 135 0
-136 134 0
-136 -135 0
-134 135 136 0
137 13 0
137 74 0
-13 -74 -137 0
136 -137 -138 0
-136 137 -138 0
136 137 138 0
-136 -137 138 0
-132 138 -139 0
132 -138 -139 0
-132 -138 139 0
132 138 139 0
33 -31 -55 3 2 -82 0
22 48 -67 0
61 46 -64 0
-132 62 0
-39 88 112 127 -6 -101 0
-32 69 -94 -127 116 37 0
-121 -77 -108 0
123 -60 -90 1 -37 -103 0
90 -34 -99 4 39 6 0
-60 -1 0
-81 -13 -37 0
93 -54 42 5 -63 0
60 4 -78 0
60 -47 33 83 -135 0
136 -78 -105 -33 20 69 0
65 -58 0
-45 116 -55 131 6 106 0
81 -108 -53 0
130 51 -70 0
7 19 137 0
-74 -110 0
-59 19 138 128 32 -132 0
-128 66 -61 -132 -12 -138 0
131 17 67 20 0
-69 -68 -47 53 -86 0
-44 -98 -66 0
-23 88 11 -95 0
73 -38 -20 -52 0
75 -45 57 -101 -54 0
50 15 -74 -131 -97 -133 0
-131 49 -52 37 74 0
-55 -49 0
48 98 -46 0
72 133 -49 0
16 -81 -120 -8 94 -6 0
-13 88 -46 -33 82 0
-71 55 -98 -121 -54 0
-30 -73 -25 0
-117 31 68 -35 -41 131 0
76 -35 -53 0
-111 57 55 54 -80 0
-65 20 -102 38 -63 29 0
-121 -31 -129 0
94 63 -113 131 -125 121 0
-24 -35 68 0
87 6 -111 0
99 -14 49 0
84 -16 -18 -61 -69 -125 0
-56 -4 -139 -111 0
92 93 0
79 92 -93 139 -113 0
-4 122 0
30 -92 -120 -45 78 6 0
125 46 12 -15 3 0
-103 111 -89 72 -56 -34 0
11 21 -65 -134 -109 0
20 -3 0
121 -104 -36 0
26 -137 18 35 -55 -113 0
-21 -9 136 -113 43 0
44 8 -109 0
136 -46 0
-17 66 31 -72 87 -134 0
-25 -112 0
29 23 -137 0
53 80 -123 -49 -65 0
3 -84 0
-80 -60 113 0
-138 117 -93 25 -10 0
-57 -83 0
44 -134 -48 118 84 0
137 -35 122 0
-113 -77 -101 0
78 -22 0
122 -63 -34 -44 0
64 -83 0
-128 49 137 8 -113 0
-54 8 0
-24 -37 -43 1 0
43 33 0
39 -63 -51 0
130 -104 -88 -89 -101 2 0
-35 -1 103 21 132 -135 0
139 0
